TCS_Benchmarks/redos_fix/corpus1_output_distinct_3611_3610_8_0.txt
(.*)(\w*)
(.*)(webos\/([\.+0-9]*))(\w*)